

******************************************************************************
This program contains Ipopt, a library for large-scale nonlinear optimization.
 Ipopt is released as open source code under the Eclipse Public License (EPL).
         For more information visit https://github.com/coin-or/Ipopt
******************************************************************************

This is Ipopt version 3.14.11, running with linear solver MUMPS 5.5.1.

Number of nonzeros in equality constraint Jacobian...:       43
Number of nonzeros in inequality constraint Jacobian.:        0
Number of nonzeros in Lagrangian Hessian.............:      123

Total number of variables............................:       49
                     variables with only lower bounds:        0
                variables with lower and upper bounds:       49
                     variables with only upper bounds:        0
Total number of equality constraints.................:       15
Total number of inequality constraints...............:        0
        inequality constraints with only lower bounds:        0
   inequality constraints with lower and upper bounds:        0
        inequality constraints with only upper bounds:        0

iter    objective    inf_pr   inf_du lg(mu)  ||d||  lg(rg) alpha_du alpha_pr  ls
   0  9.4716578e+07 1.65e+01 4.20e+04  -1.0 0.00e+00    -  0.00e+00 0.00e+00   0
   1  9.4695358e+07 1.17e+01 2.98e+04  -1.0 3.90e+00   2.0 9.60e-01 2.91e-01f  1
   2  9.4187592e+07 1.17e+01 2.97e+04  -1.0 5.23e+03    -  3.20e-03 3.24e-03f  1
   3  9.4186916e+07 1.16e+01 2.94e+04  -1.0 3.18e+00   1.5 9.90e-01 9.03e-03f  1
   4  9.3548434e+07 1.15e+01 2.86e+04  -1.0 1.17e+04    -  9.51e-04 4.78e-03f  1
   5  9.3553967e+07 1.13e+01 2.80e+04  -1.0 1.61e+01   1.0 1.00e+00 2.29e-02h  1
   6  9.3590645e+07 8.70e+00 2.16e+04  -1.0 1.58e+01   0.6 1.00e+00 2.27e-01h  1
   7  9.3445232e+07 8.67e+00 2.08e+04  -1.0 5.18e+04    -  8.44e-04 3.62e-03f  1
   8  9.3431452e+07 8.65e+00 2.07e+04  -1.0 9.12e+04    -  2.58e-03 2.78e-03f  1
   9  9.3426266e+07 8.54e+00 3.51e+04  -1.0 2.68e+03    -  1.57e-01 1.25e-02f  1
iter    objective    inf_pr   inf_du lg(mu)  ||d||  lg(rg) alpha_du alpha_pr  ls
  10  9.3481902e+07 7.83e+00 4.73e+05  -1.0 4.03e+01   0.1 1.00e+00 8.27e-02h  1
  11  9.3824176e+07 5.58e+00 4.21e+05  -1.0 2.96e+02    -  1.05e-02 2.88e-01h  1
  12  9.3855294e+07 5.37e+00 4.09e+05  -1.0 1.15e+04    -  2.67e-02 3.67e-02h  1
  13  9.3923091e+07 4.93e+00 1.07e+05  -1.0 5.95e+01    -  1.00e+00 8.26e-02h  1
  14  9.4100658e+07 3.77e+00 8.21e+04  -1.0 1.86e+02    -  2.35e-02 2.36e-01h  1
  15  9.4217991e+07 3.00e+00 7.54e+05  -1.0 4.14e+01   0.5 1.00e+00 2.04e-01h  1
  16  9.4675686e+07 2.98e-02 1.46e+05  -1.0 3.32e+01   0.0 7.72e-01 9.90e-01h  1
  17  9.4686130e+07 4.55e-13 1.14e+05  -1.0 2.45e+02    -  7.72e-01 1.00e+00h  1
  18  9.4680482e+07 5.12e-13 1.42e+05  -1.0 3.61e-01   1.4 6.77e-01 1.00e+00f  1
  19  9.4680462e+07 4.55e-13 2.84e-01  -1.0 3.64e-02   0.9 1.00e+00 1.00e+00f  1
iter    objective    inf_pr   inf_du lg(mu)  ||d||  lg(rg) alpha_du alpha_pr  ls
  20  9.4680157e+07 3.41e-13 3.89e+01  -3.8 1.99e+01    -  9.36e-01 9.96e-01f  1
  21  9.4680156e+07 2.27e-13 2.06e+02  -3.8 2.10e+02    -  2.75e-02 2.98e-02f  1
  22  9.4680149e+07 7.96e-13 2.07e+04  -3.8 9.58e+01    -  7.96e-01 5.00e-01f  2
  23  9.4680141e+07 6.25e-13 1.02e-01  -3.8 4.02e-02   0.4 1.00e+00 1.00e+00f  1
  24  9.4680137e+07 1.88e-12 1.70e+01  -3.8 8.35e-02  -0.1 9.49e-01 9.87e-01f  1
  25  9.4680137e+07 1.08e-12 3.58e+00  -3.8 3.88e-02  -0.5 1.00e+00 3.94e-01f  1
  26  9.4680136e+07 2.27e-13 1.18e-02  -3.8 8.58e-02  -1.0 1.00e+00 1.00e+00f  1
  27  9.4680136e+07 7.96e-13 2.73e+02  -5.7 1.46e-01  -1.5 9.38e-01 9.65e-01f  1
  28  9.4680135e+07 1.53e-12 5.06e-02  -5.7 4.41e-01  -2.0 1.00e+00 1.00e+00f  1
  29  9.4680133e+07 4.55e-13 3.16e-01  -5.7 1.35e+00  -2.4 1.00e+00 5.79e-01f  1
iter    objective    inf_pr   inf_du lg(mu)  ||d||  lg(rg) alpha_du alpha_pr  ls
  30  9.4680131e+07 2.84e-13 2.23e-01  -5.7 4.27e+00  -2.9 1.00e+00 2.96e-01f  1
  31  9.4680131e+07 4.55e-13 2.02e-01  -5.7 2.55e+00  -3.4 1.00e+00 9.89e-02f  1
  32  9.4680131e+07 1.42e-12 2.81e-01  -5.7 8.24e-01  -3.9 1.00e+00 1.00e+00f  1
  33  9.4680131e+07 1.42e-12 2.03e-01  -5.7 2.08e+00  -4.4 1.00e+00 2.82e-01f  1
  34  9.4680131e+07 4.55e-13 1.50e-01  -5.7 4.79e+00  -4.8 1.00e+00 1.00e+00f  1
  35  9.4680130e+07 3.41e-13 3.79e+00  -5.7 3.85e+02    -  1.44e-01 4.37e-02f  4
  36  9.4680130e+07 1.14e-13 4.83e-01  -5.7 6.39e+00  -5.3 1.00e+00 1.00e+00f  1
  37  9.4680130e+07 4.55e-13 9.92e+00  -5.7 1.37e+02    -  1.15e-01 1.92e-01f  2
  38  9.4680129e+07 4.55e-13 8.24e-04  -5.7 5.29e-02  -3.1 1.00e+00 1.00e+00f  1
  39  9.4680129e+07 1.14e-13 4.06e-04  -5.7 1.63e-01  -3.6 1.00e+00 1.00e+00f  1
iter    objective    inf_pr   inf_du lg(mu)  ||d||  lg(rg) alpha_du alpha_pr  ls
  40  9.4680129e+07 1.65e-12 8.59e+01  -8.6 1.42e+03    -  6.34e-01 1.15e-02f  3
  41  9.4680129e+07 2.16e-12 2.84e+01  -8.6 1.95e+01    -  1.65e-01 8.99e-01f  1
  42  9.4680129e+07 1.25e-12 3.67e-01  -8.6 5.25e-01  -4.0 9.91e-01 1.00e+00f  1
  43  9.4680128e+07 5.68e-13 1.27e+01  -8.6 1.55e+00  -4.5 1.00e+00 7.90e-01f  1
  44  9.4680128e+07 1.25e-12 3.53e-01  -8.6 4.37e+00  -5.0 1.00e+00 1.00e+00f  1
  45  9.4680128e+07 5.68e-13 2.64e+00  -8.6 1.18e+01  -5.5 1.00e+00 1.00e+00f  1
  46  9.4680128e+07 5.68e-13 2.24e+00  -8.6 1.55e+01  -5.9 1.00e+00 2.17e-01f  1
  47  9.4680128e+07 1.25e-12 5.77e+00  -8.6 1.80e+01  -6.4 1.00e+00 1.00e+00f  1
  48  9.4680127e+07 5.68e-13 1.79e+00  -8.6 7.30e+00  -6.9 1.00e+00 8.00e-01f  1
  49  9.4680127e+07 5.68e-13 1.72e+00  -8.6 6.09e+01    -  4.22e-02 6.25e-02f  1
iter    objective    inf_pr   inf_du lg(mu)  ||d||  lg(rg) alpha_du alpha_pr  ls
  50  9.4680127e+07 5.68e-13 1.71e+00  -8.6 2.86e+00  -4.7 3.04e-02 6.72e-03f  1
  51  9.4680127e+07 1.25e-12 5.01e-01  -8.6 5.71e-01  -4.2 9.21e-01 7.09e-01f  1
  52  9.4680127e+07 5.68e-13 6.31e-02  -8.6 1.60e+00  -4.7 7.94e-01 1.00e+00f  1
  53  9.4680127e+07 5.68e-13 5.75e-02  -8.6 3.19e+02    -  7.93e-01 2.06e-04f  1
  54  9.4680127e+07 1.25e-12 3.20e-01  -8.6 4.14e+00  -5.2 1.00e+00 1.00e+00f  1
  55  9.4680127e+07 1.25e-12 4.97e+00  -8.6 3.43e+01    -  8.19e-01 4.61e-01f  2
  56  9.4680127e+07 5.68e-13 1.59e-04  -8.6 1.20e-01  -3.9 1.00e+00 1.00e+00f  1
  57  9.4680127e+07 5.68e-13 2.67e-03  -8.6 3.68e-01  -4.3 1.00e+00 1.00e+00f  1
  58  9.4680127e+07 5.68e-13 9.98e-01  -8.6 3.50e+01    -  8.37e-01 2.50e-01f  3
  59  9.4680127e+07 1.25e-12 1.06e-02  -8.6 7.93e-01  -4.8 1.00e+00 1.00e+00f  1
iter    objective    inf_pr   inf_du lg(mu)  ||d||  lg(rg) alpha_du alpha_pr  ls
  60  9.4680127e+07 5.68e-13 9.04e-02  -8.6 2.11e+00  -5.3 1.00e+00 1.00e+00f  1
  61  9.4680127e+07 1.25e-12 4.22e-01  -8.6 4.54e+00  -5.8 1.00e+00 1.00e+00f  1
  62  9.4680127e+07 1.25e-12 4.17e-01  -8.6 3.82e+01    -  8.42e-01 2.50e-01f  3
  63  9.4680127e+07 5.68e-13 5.93e-04  -8.6 1.79e-01  -4.4 1.00e+00 1.00e+00f  1
  64  9.4680127e+07 1.25e-12 5.40e-03  -8.6 5.10e-01  -4.9 1.00e+00 1.00e+00f  1
  65  9.4680127e+07 1.25e-12 7.75e-02  -8.6 4.91e+01    -  8.02e-01 1.25e-01f  4
  66  9.4680127e+07 5.68e-13 5.53e-04  -8.6 1.64e-01  -4.5 1.00e+00 1.00e+00f  1
  67  9.4680127e+07 1.25e-12 4.49e-03  -8.6 4.63e-01  -5.0 1.00e+00 1.00e+00f  1
  68  9.4680127e+07 1.25e-12 8.91e-02  -8.6 5.66e+01    -  7.79e-01 1.25e-01f  4
  69  9.4680127e+07 5.68e-13 4.60e-04  -8.6 1.48e-01  -4.5 1.00e+00 1.00e+00f  1
iter    objective    inf_pr   inf_du lg(mu)  ||d||  lg(rg) alpha_du alpha_pr  ls
  70  9.4680127e+07 1.25e-12 3.67e-03  -8.6 4.18e-01  -5.0 1.00e+00 1.00e+00f  1
  71  9.4680127e+07 1.25e-12 1.03e-01  -8.6 6.59e+01    -  7.54e-01 1.25e-01f  4
  72  9.4680127e+07 5.68e-13 3.75e-04  -8.6 1.34e-01  -4.6 1.00e+00 1.00e+00f  1
  73  9.4680127e+07 1.25e-12 2.94e-03  -8.6 3.73e-01  -5.1 1.00e+00 1.00e+00f  1
  74  9.4680127e+07 1.25e-12 1.19e-01  -8.6 7.78e+01    -  7.27e-01 1.25e-01f  4
  75  9.4680127e+07 5.68e-13 2.99e-04  -8.6 1.19e-01  -4.6 1.00e+00 1.00e+00f  1
  76  9.4680127e+07 1.25e-12 2.30e-03  -8.6 3.30e-01  -5.1 1.00e+00 1.00e+00f  1
  77  9.4680127e+07 1.25e-12 1.53e-01  -8.6 9.26e+01    -  7.00e-01 6.25e-02f  5
  78  9.4680127e+07 5.68e-13 1.16e-02  -8.6 7.39e-01  -5.6 1.00e+00 1.00e+00f  1
  79  9.4680127e+07 1.25e-12 3.33e-02  -8.6 1.25e+00  -6.1 1.00e+00 1.00e+00f  1
iter    objective    inf_pr   inf_du lg(mu)  ||d||  lg(rg) alpha_du alpha_pr  ls
  80  9.4680127e+07 1.25e-12 1.49e-01  -8.6 1.02e+02    -  6.85e-01 1.25e-01h  4
  81  9.4680127e+07 5.68e-13 5.18e-05  -8.6 4.99e-02  -4.7 1.00e+00 1.00e+00f  1
  82  9.4680127e+07 1.25e-12 3.92e-04  -8.6 1.36e-01  -5.2 1.00e+00 1.00e+00h  1
  83  9.4680127e+07 1.25e-12 1.75e-01  -8.6 1.24e+02    -  6.55e-01 1.25e-01h  4
  84  9.4680127e+07 5.68e-13 3.90e-05  -8.6 4.27e-02  -4.8 1.00e+00 1.00e+00f  1
  85  9.4680127e+07 1.25e-12 2.80e-04  -8.6 1.14e-01  -5.3 1.00e+00 1.00e+00h  1
  86  9.4680127e+07 1.25e-12 2.32e-01  -8.6 1.51e+02    -  6.31e-01 6.25e-02h  5
  87  9.4680127e+07 5.68e-13 1.19e-03  -8.6 2.36e-01  -5.8 1.00e+00 1.00e+00h  1
  88  9.4680127e+07 1.25e-12 2.43e-03  -8.6 3.37e-01  -6.2 1.00e+00 1.00e+00h  1
  89  9.4680127e+07 1.25e-12 2.68e-01  -8.6 1.69e+02    -  6.16e-01 3.12e-02h  6
iter    objective    inf_pr   inf_du lg(mu)  ||d||  lg(rg) alpha_du alpha_pr  ls
  90  9.4680127e+07 5.68e-13 1.11e-03  -8.6 2.28e-01  -6.7 1.00e+00 1.00e+00h  1
  91  9.4680127e+07 5.68e-13 2.95e-01  -8.6 1.86e+02    -  5.46e-01 3.91e-03h  9
  92  9.4680127e+07 1.25e-12 8.50e-05  -8.6 6.30e-02  -7.2 1.00e+00 1.00e+00h  1
  93  9.4680127e+07 5.68e-13 2.58e-06  -8.6 4.86e-02  -7.7 1.00e+00 1.00e+00h  1
  94  9.4680128e+07 5.68e-13 2.15e-01  -8.6 1.32e+03    -  9.61e-02 1.98e-02h  4
  95  9.4680127e+07 5.68e-13 8.23e-03  -8.6 5.04e-01  -3.6 1.00e+00 1.00e+00F  1
  96  9.4680127e+07 1.25e-12 1.51e-06  -8.6 2.75e-03  -4.1 1.00e+00 1.00e+00f  1
  97  9.4680127e+07 5.68e-13 4.89e-09  -8.6 1.85e-04  -4.6 1.00e+00 1.00e+00h  1

Number of Iterations....: 97

                                   (scaled)                 (unscaled)
Objective...............:   4.1151075243830757e+05    9.4680127015503272e+07
Dual infeasibility......:   4.8947419447063607e-09    1.1261790519128328e-06
Constraint violation....:   4.5474735088646412e-13    5.6843418860808015e-13
Variable bound violation:   4.9999965767710819e-06    4.9999965767710819e-06
Complementarity.........:   2.5070308215853757e-09    5.7681602537243566e-07
Overall NLP error.......:   1.5358938608139801e-10    1.1261790519128328e-06


Number of objective function evaluations             = 162
Number of objective gradient evaluations             = 98
Number of equality constraint evaluations            = 162
Number of inequality constraint evaluations          = 0
Number of equality constraint Jacobian evaluations   = 98
Number of inequality constraint Jacobian evaluations = 0
Number of Lagrangian Hessian evaluations             = 97
Total seconds in IPOPT                               = 0.090

EXIT: Optimal Solution Found.
 
Ipopt 3.14.11: Optimal Solution Found
